(set-option :fp.xform.elim_term_ite true)
(declare-fun a (bool bool int int int int int int int) bool)
(assert (forall ((b int) (c bool) (d bool) (k int) (e int) (f int) (l int) (m int) (n int))
(=> (= b 0) (not d) (a c d f l m n k e b))))
(assert (forall ((c bool) (d bool) (f int) (l int) (m int) (n int) (k int) (e int) (b int)
(gm int) (gf int) (gk int) (gb int) (gc bool) (gn int) (ge int) (gl int) (gd bool))
(let ((h (and (= e 1 (ite (= b n) l b)) (= gd (distinct b n)) (= ge 0))))
(let ((o (and (a c d f l m n k e b) h)))
(=> o (a gc gd gf gl gm gn gk ge gb))))))
(assert (forall ((c bool) (d bool) (f int) (l int) (m int) (n int) (k int) (e int) (b int))
(=> (a c d f l m n k e b) d false)))
(check-sat)